c gen_tree
c PARAM_SIZE 100
c PARAM_MAX_CHILD 5
c PARAM_CHILD_VAR 0.5
c PARAM_CHILD_PRUNE 2
c PARAM_RESTARTS 3
c PARAM_RESTART_CHANCE 0.1
c PARAM_UNIT_CHANCE 0.0
c PARAM_TRIAD_CHANCE 0.2
p cnf 30 39
-1 -2 0
1 3 0
-1 4 0
1 5 0
-2 3 -1 0
2 -6 0
-6 7 0
3 8 0
3 -9 0
8 9 -3 0
9 -10 0
10 11 0
4 -12 0
4 13 0
12 13 4 0
-12 14 0
13 -15 0
-5 16 0
-5 -17 0
-16 -17 5 0
-16 18 0
-18 -19 0
-19 -20 0
17 21 0
-21 22 0
1 -24 0
1 -23 0
24 23 0
24 -26 0
24 -25 0
26 25 0
5 -28 0
5 -27 0
28 27 0
19 -30 0
19 -29 0
30 29 0
22 -8 0
-8 20 0
